(set-logic QF_BV)

;; Declare variables for packet attributes
(declare-fun src_ip () (_ BitVec 32))
(declare-fun dst_ip () (_ BitVec 32))
(declare-fun src_port () (_ BitVec 16))
(declare-fun dst_port () (_ BitVec 16))
(declare-fun proto () (_ BitVec 8))
(declare-fun state () (_ BitVec 8))

;; Declare constants for actions
(declare-const ACTION_DROP (_ BitVec 8))
(declare-const ACTION_ACCEPT (_ BitVec 8))

;; Define values for actions (example - adjust as needed)
(assert (= ACTION_DROP #b00000000))  ; Example: 0 for DROP
(assert (= ACTION_ACCEPT #b00000001)) ; Example: 1 for ACCEPT

;; Function to apply mask (bitwise AND)
(define-fun apply_mask ((ip (_ BitVec 32)) (mask (_ BitVec 32))) (_ BitVec 32)
    (bvand ip mask)
)

;; Define init_rules function - will contain rule assertions
(define-fun init_rules () ()
  ; Initialize rules - assertions will go here
  ; Total rules count: 0\n)}\n\n;; Assert default DROP policy for filter table (if no rule matches)
;; (No explicit assertion needed here, default DROP is handled in check_packet function)


;; Define check_packet function - SMT-LIB version
(define-fun check_packet ((src_ip (_ BitVec 32)) (dst_ip (_ BitVec 32)) (src_port (_ BitVec 16)) (dst_port (_ BitVec 16)) (proto (_ BitVec 8)) (state (_ BitVec 8))) (_ BitVec 8)
  (let (

    (action_default ACTION_DROP) ; Default action if no rule matches
    )
    (ite ACTION_DROP ; Evaluate last rule's action (which chains back to previous rules)
         ACTION_DROP
         action_default)
  )
)

;; End of SMT-LIB file
)
